Welcome to the CBC MILP Solver 
Version: 2.10.12 
Build Date: Aug 20 2024 

command line - /opt/homebrew/bin/cbc computational_data/lp/Petersen.lp seconds 10.0 solve solu computational_data/solutions/Petersen.sol (default strategy 1)
seconds was changed from 1e+100 to 10
Continuous objective value is 4 - 0.00 seconds
Cgl0004I processed model has 62 rows, 20 columns (20 integer (20 of which binary)) and 200 elements
Cutoff increment increased from 1e-05 to 0.9999
Cbc0038I Initial state - 8 integers unsatisfied sum - 4
Cbc0038I Pass   1: suminf.    4.00000 (8) obj. 4 iterations 7
Cbc0038I Pass   2: suminf.    4.00000 (8) obj. 4 iterations 8
Cbc0038I Pass   3: suminf.    3.33333 (10) obj. 5 iterations 14
Cbc0038I Pass   4: suminf.    0.00000 (0) obj. 6 iterations 9
Cbc0038I Solution found of 6
Cbc0038I Before mini branch and bound, 5 integers at bound fixed and 0 continuous
Cbc0038I Full problem 62 rows 20 columns, reduced to 41 rows 14 columns
Cbc0038I Mini branch and bound did not improve solution (0.01 seconds)
Cbc0038I Round again with cutoff of 4.90009
Cbc0038I Pass   5: suminf.    4.00000 (8) obj. 4 iterations 0
Cbc0038I Pass   6: suminf.    4.00000 (8) obj. 4 iterations 4
Cbc0038I Pass   7: suminf.    3.00925 (13) obj. 4.90009 iterations 14
Cbc0038I Pass   8: suminf.    2.36664 (12) obj. 4.90009 iterations 8
Cbc0038I Pass   9: suminf.    2.36664 (12) obj. 4.90009 iterations 14
Cbc0038I Pass  10: suminf.    2.36664 (12) obj. 4.90009 iterations 5
Cbc0038I Pass  11: suminf.    2.36664 (12) obj. 4.90009 iterations 11
Cbc0038I Pass  12: suminf.    3.63336 (13) obj. 4.90009 iterations 19
Cbc0038I Pass  13: suminf.    3.07761 (16) obj. 4.90009 iterations 4
Cbc0038I Pass  14: suminf.    2.36664 (12) obj. 4.90009 iterations 6
Cbc0038I Pass  15: suminf.    2.36664 (12) obj. 4.90009 iterations 5
Cbc0038I Pass  16: suminf.    2.90009 (14) obj. 4.90009 iterations 14
Cbc0038I Pass  17: suminf.    2.36664 (12) obj. 4.90009 iterations 4
Cbc0038I Pass  18: suminf.    2.36664 (12) obj. 4.90009 iterations 10
Cbc0038I Pass  19: suminf.    3.97491 (15) obj. 4.90009 iterations 17
Cbc0038I Pass  20: suminf.    3.40009 (12) obj. 4.90009 iterations 11
Cbc0038I Pass  21: suminf.    2.36664 (12) obj. 4.90009 iterations 10
Cbc0038I Pass  22: suminf.    2.36664 (12) obj. 4.90009 iterations 12
Cbc0038I Pass  23: suminf.    2.36664 (12) obj. 4.90009 iterations 4
Cbc0038I Pass  24: suminf.    2.36664 (12) obj. 4.90009 iterations 14
Cbc0038I Pass  25: suminf.    3.00000 (13) obj. 4.90009 iterations 20
Cbc0038I Pass  26: suminf.    2.36664 (12) obj. 4.90009 iterations 9
Cbc0038I Pass  27: suminf.    2.36664 (12) obj. 4.90009 iterations 13
Cbc0038I Pass  28: suminf.    2.36664 (12) obj. 4.90009 iterations 3
Cbc0038I Pass  29: suminf.    2.36664 (12) obj. 4.90009 iterations 17
Cbc0038I Pass  30: suminf.    3.69967 (12) obj. 4.90009 iterations 18
Cbc0038I Pass  31: suminf.    2.36664 (12) obj. 4.90009 iterations 14
Cbc0038I Pass  32: suminf.    2.36664 (12) obj. 4.90009 iterations 4
Cbc0038I Pass  33: suminf.    2.36664 (12) obj. 4.90009 iterations 11
Cbc0038I Pass  34: suminf.    2.36664 (12) obj. 4.90009 iterations 2
Cbc0038I No solution found this major pass
Cbc0038I Before mini branch and bound, 0 integers at bound fixed and 0 continuous
Cbc0038I Full problem 62 rows 20 columns, reduced to 62 rows 20 columns
Cbc0038I Mini branch and bound did not improve solution (0.04 seconds)
Cbc0038I After 0.04 seconds - Feasibility pump exiting with objective of 6 - took 0.04 seconds
Cbc0012I Integer solution of 6 found by feasibility pump after 0 iterations and 0 nodes (0.04 seconds)
Cbc0038I Full problem 62 rows 20 columns, reduced to 28 rows 10 columns
Cbc0031I 2 added rows had average density of 20
Cbc0013I At root node, 2 cuts changed objective from 4 to 5 in 100 passes
Cbc0014I Cut generator 0 (Probing) - 3 row cuts average 5.7 elements, 0 column cuts (0 active)  in 0.003 seconds - new frequency is -100
Cbc0014I Cut generator 1 (Gomory) - 775 row cuts average 19.5 elements, 0 column cuts (0 active)  in 0.006 seconds - new frequency is 1
Cbc0014I Cut generator 2 (Knapsack) - 4 row cuts average 18.0 elements, 0 column cuts (0 active)  in 0.005 seconds - new frequency is -100
Cbc0014I Cut generator 3 (Clique) - 0 row cuts average 0.0 elements, 0 column cuts (0 active)  in 0.001 seconds - new frequency is -100
Cbc0014I Cut generator 4 (MixedIntegerRounding2) - 18 row cuts average 19.2 elements, 0 column cuts (0 active)  in 0.004 seconds - new frequency is -100
Cbc0014I Cut generator 5 (FlowCover) - 0 row cuts average 0.0 elements, 0 column cuts (0 active)  in 0.000 seconds - new frequency is -100
Cbc0014I Cut generator 7 (ZeroHalf) - 384 row cuts average 7.6 elements, 0 column cuts (0 active)  in 0.113 seconds - new frequency is 1
Cbc0010I After 0 nodes, 1 on tree, 6 best solution, best possible 5 (0.20 seconds)
Cbc0001I Search completed - best objective 6, took 1709 iterations and 2 nodes (0.21 seconds)
Cbc0032I Strong branching done 52 times (508 iterations), fathomed 1 nodes and fixed 0 variables
Cbc0035I Maximum depth 0, 0 variables fixed on reduced cost
Cuts at root node changed objective from 4 to 5
Probing was tried 100 times and created 3 cuts of which 0 were active after adding rounds of cuts (0.003 seconds)
Gomory was tried 106 times and created 790 cuts of which 0 were active after adding rounds of cuts (0.006 seconds)
Knapsack was tried 100 times and created 4 cuts of which 0 were active after adding rounds of cuts (0.005 seconds)
Clique was tried 100 times and created 0 cuts of which 0 were active after adding rounds of cuts (0.001 seconds)
MixedIntegerRounding2 was tried 100 times and created 18 cuts of which 0 were active after adding rounds of cuts (0.004 seconds)
FlowCover was tried 100 times and created 0 cuts of which 0 were active after adding rounds of cuts (0.000 seconds)
TwoMirCuts was tried 1 times and created 0 cuts of which 0 were active after adding rounds of cuts (0.000 seconds)
ZeroHalf was tried 106 times and created 408 cuts of which 0 were active after adding rounds of cuts (0.121 seconds)

Result - Optimal solution found

Objective value:                6.00000000
Enumerated nodes:               2
Total iterations:               1709
Time (CPU seconds):             0.21
Time (Wallclock seconds):       0.23

Total time (CPU seconds):       0.21   (Wallclock seconds):       0.23

